% Logging successfully configured
%%%mzn-stat: initTime=0.008895337
%%%mzn-stat: objective=449
%%%mzn-stat: nodes=6173
%%%mzn-stat: restarts=0
%%%mzn-stat: peakDepth=422
%%%mzn-stat: solveTime=3.435645029
%%%mzn-stat: variables=848
%%%mzn-stat: propagators=595
%%%mzn-stat: failures=5724
%%%mzn-stat: propagations=165776
%%%mzn-stat: nogoods=5724
%%%mzn-stat: numAtomicConstraintsPropagated=0
%%%mzn-stat: circuitNumber1PropagationsTotal=30080
%%%mzn-stat: circuitNumber1CircuitConflicts=4915
%%%mzn-stat: circuitNumber1AlldiffConflicts=116
%%%mzn-stat: circuitNumber1TotalFixedEdgesAtConflict=227831
%%%mzn-stat: circuitNumber1NumberOfConflicts=5031
%%%mzn-stat: circuitNumber1GacPrunings=51990
%%%mzn-stat: circuitNumber1PropagationsThatGacPruned=16348
%%%mzn-stat: circuitNumber1TotalPruningHallSetSize=132515
%%%mzn-stat: circuitNumber1NumberOfPruningExplanations=51990
%%%mzn-stat: circuitNumber1MaxPruningHallSetSize=25
%%%mzn-stat: circuitNumber1TotalSccSizeAtPruning=65363
%%%mzn-stat: circuitNumber1NumberOfSccPruningCalls=16348
%%%mzn-stat: circuitNumber1TotalVarsInvolvedInPruning=41890
%%%mzn-stat: circuitNumber1MaxValuesPrunedFromSingleVar=7
%%%mzn-stat: circuitNumber1HallCircuitChecks=47692
%%%mzn-stat: circuitNumber1HallCircuitPrunings=3307
%%%mzn-stat: circuitNumber1CircuitPreventPrunings=16238
%%%mzn-stat: AverageConflictSize=20.156009783368273
%%%mzn-stat: NumUnitNogoodsLearned=0
%%%mzn-stat: AverageLearnedNogoodLength=29.31009783368274
%%%mzn-stat: AverageBacktrackAmount=0
%%%mzn-stat: AverageLbd=28.44723969252271
%%%mzn-stat: 2AutonomousSearchNumBackupCalled=389
%%%mzn-stat: 2AutonomousSearchNumPredicatesRemoved=0
%%%mzn-stat: 2AutonomousSearchNumCalls=390
%%%mzn-stat: 2AutonomousSearchNumPredicatesAdded=1606
%%%mzn-stat: 2AutonomousSearchAverageSizeOfHeap=4.1179487179487175
%%%mzn-stat: 2AutonomousSearchNumAssignedPredicatesEncountered=1606
%%%mzn-stat-end
maxleg = 449;
succ = array1d(1..50,[2, 5, 15, 19, 7, 8, 13, 33, 10, 12, 22, 11, 18, 1, 6, 17, 30, 20, 14, 28, 24, 23, 25, 40, 31, 4, 16, 9, 34, 46, 32, 21, 36, 43, 49, 45, 27, 3, 41, 42, 35, 48, 26, 37, 47, 39, 44, 38, 50, 29]);
% time elapsed: 6.40 s
----------
%%%mzn-stat: initTime=0.008895337
%%%mzn-stat: objective=383
%%%mzn-stat: nodes=6714
%%%mzn-stat: restarts=0
%%%mzn-stat: peakDepth=422
%%%mzn-stat: solveTime=3.485273291
%%%mzn-stat: variables=848
%%%mzn-stat: propagators=595
%%%mzn-stat: failures=5821
%%%mzn-stat: propagations=169581
%%%mzn-stat: nogoods=5821
%%%mzn-stat: numAtomicConstraintsPropagated=0
%%%mzn-stat: circuitNumber1PropagationsTotal=30663
%%%mzn-stat: circuitNumber1CircuitConflicts=4997
%%%mzn-stat: circuitNumber1AlldiffConflicts=119
%%%mzn-stat: circuitNumber1TotalFixedEdgesAtConflict=231711
%%%mzn-stat: circuitNumber1NumberOfConflicts=5116
%%%mzn-stat: circuitNumber1GacPrunings=53017
%%%mzn-stat: circuitNumber1PropagationsThatGacPruned=16652
%%%mzn-stat: circuitNumber1TotalPruningHallSetSize=135187
%%%mzn-stat: circuitNumber1NumberOfPruningExplanations=53017
%%%mzn-stat: circuitNumber1MaxPruningHallSetSize=33
%%%mzn-stat: circuitNumber1TotalSccSizeAtPruning=66566
%%%mzn-stat: circuitNumber1NumberOfSccPruningCalls=16652
%%%mzn-stat: circuitNumber1TotalVarsInvolvedInPruning=42723
%%%mzn-stat: circuitNumber1MaxValuesPrunedFromSingleVar=8
%%%mzn-stat: circuitNumber1HallCircuitChecks=48607
%%%mzn-stat: circuitNumber1HallCircuitPrunings=3350
%%%mzn-stat: circuitNumber1CircuitPreventPrunings=16487
%%%mzn-stat: AverageConflictSize=20.18570692320907
%%%mzn-stat: NumUnitNogoodsLearned=0
%%%mzn-stat: AverageLearnedNogoodLength=29.26077993471912
%%%mzn-stat: AverageBacktrackAmount=0
%%%mzn-stat: AverageLbd=28.250987802783026
%%%mzn-stat: 2AutonomousSearchNumBackupCalled=771
%%%mzn-stat: 2AutonomousSearchNumPredicatesRemoved=0
%%%mzn-stat: 2AutonomousSearchNumCalls=773
%%%mzn-stat: 2AutonomousSearchNumPredicatesAdded=2519
%%%mzn-stat: 2AutonomousSearchAverageSizeOfHeap=4.2833117723156535
%%%mzn-stat: 2AutonomousSearchNumAssignedPredicatesEncountered=3311
%%%mzn-stat-end
maxleg = 383;
succ = array1d(1..50,[2, 5, 15, 19, 7, 8, 13, 33, 10, 12, 22, 11, 18, 1, 6, 17, 30, 20, 14, 28, 24, 23, 25, 40, 31, 4, 44, 41, 34, 46, 32, 21, 26, 43, 27, 9, 16, 3, 47, 42, 35, 48, 36, 37, 49, 39, 45, 38, 50, 29]);
% time elapsed: 6.43 s
----------
%%%mzn-stat: initTime=0.008895337
%%%mzn-stat: objective=373
%%%mzn-stat: nodes=7179
%%%mzn-stat: restarts=0
%%%mzn-stat: peakDepth=422
%%%mzn-stat: solveTime=3.52720942
%%%mzn-stat: variables=848
%%%mzn-stat: propagators=595
%%%mzn-stat: failures=5878
%%%mzn-stat: propagations=172150
%%%mzn-stat: nogoods=5878
%%%mzn-stat: numAtomicConstraintsPropagated=0
%%%mzn-stat: circuitNumber1PropagationsTotal=31028
%%%mzn-stat: circuitNumber1CircuitConflicts=5028
%%%mzn-stat: circuitNumber1AlldiffConflicts=119
%%%mzn-stat: circuitNumber1TotalFixedEdgesAtConflict=233123
%%%mzn-stat: circuitNumber1NumberOfConflicts=5147
%%%mzn-stat: circuitNumber1GacPrunings=53676
%%%mzn-stat: circuitNumber1PropagationsThatGacPruned=16856
%%%mzn-stat: circuitNumber1TotalPruningHallSetSize=137360
%%%mzn-stat: circuitNumber1NumberOfPruningExplanations=53676
%%%mzn-stat: circuitNumber1MaxPruningHallSetSize=33
%%%mzn-stat: circuitNumber1TotalSccSizeAtPruning=67570
%%%mzn-stat: circuitNumber1NumberOfSccPruningCalls=16856
%%%mzn-stat: circuitNumber1TotalVarsInvolvedInPruning=43276
%%%mzn-stat: circuitNumber1MaxValuesPrunedFromSingleVar=8
%%%mzn-stat: circuitNumber1HallCircuitChecks=49130
%%%mzn-stat: circuitNumber1HallCircuitPrunings=3370
%%%mzn-stat: circuitNumber1CircuitPreventPrunings=16679
%%%mzn-stat: AverageConflictSize=20.379380741748893
%%%mzn-stat: NumUnitNogoodsLearned=0
%%%mzn-stat: AverageLearnedNogoodLength=29.370193943518203
%%%mzn-stat: AverageBacktrackAmount=0
%%%mzn-stat: AverageLbd=28.23851650221164
%%%mzn-stat: 2AutonomousSearchNumBackupCalled=1149
%%%mzn-stat: 2AutonomousSearchNumPredicatesRemoved=0
%%%mzn-stat: 2AutonomousSearchNumCalls=1152
%%%mzn-stat: 2AutonomousSearchNumPredicatesAdded=3430
%%%mzn-stat: 2AutonomousSearchAverageSizeOfHeap=4.365451388888889
%%%mzn-stat: 2AutonomousSearchNumAssignedPredicatesEncountered=5029
%%%mzn-stat-end
maxleg = 373;
succ = array1d(1..50,[2, 5, 15, 19, 14, 8, 13, 33, 10, 12, 22, 11, 18, 27, 6, 1, 7, 20, 29, 28, 24, 23, 25, 40, 31, 4, 35, 9, 34, 17, 32, 21, 36, 50, 41, 43, 16, 3, 46, 42, 39, 48, 26, 37, 47, 30, 44, 38, 45, 49]);
% time elapsed: 6.47 s
----------
%%%mzn-stat: initTime=0.008895337
%%%mzn-stat: objective=352
%%%mzn-stat: nodes=9619
%%%mzn-stat: restarts=0
%%%mzn-stat: peakDepth=422
%%%mzn-stat: solveTime=4.192229032
%%%mzn-stat: variables=848
%%%mzn-stat: propagators=595
%%%mzn-stat: failures=7044
%%%mzn-stat: propagations=214373
%%%mzn-stat: nogoods=7044
%%%mzn-stat: numAtomicConstraintsPropagated=0
%%%mzn-stat: circuitNumber1PropagationsTotal=38813
%%%mzn-stat: circuitNumber1CircuitConflicts=5859
%%%mzn-stat: circuitNumber1AlldiffConflicts=125
%%%mzn-stat: circuitNumber1TotalFixedEdgesAtConflict=269896
%%%mzn-stat: circuitNumber1NumberOfConflicts=5984
%%%mzn-stat: circuitNumber1GacPrunings=67208
%%%mzn-stat: circuitNumber1PropagationsThatGacPruned=21139
%%%mzn-stat: circuitNumber1TotalPruningHallSetSize=174404
%%%mzn-stat: circuitNumber1NumberOfPruningExplanations=67208
%%%mzn-stat: circuitNumber1MaxPruningHallSetSize=33
%%%mzn-stat: circuitNumber1TotalSccSizeAtPruning=86884
%%%mzn-stat: circuitNumber1NumberOfSccPruningCalls=21139
%%%mzn-stat: circuitNumber1TotalVarsInvolvedInPruning=54149
%%%mzn-stat: circuitNumber1MaxValuesPrunedFromSingleVar=8
%%%mzn-stat: circuitNumber1HallCircuitChecks=62694
%%%mzn-stat: circuitNumber1HallCircuitPrunings=3739
%%%mzn-stat: circuitNumber1CircuitPreventPrunings=19995
%%%mzn-stat: AverageConflictSize=20.44207836456559
%%%mzn-stat: NumUnitNogoodsLearned=0
%%%mzn-stat: AverageLearnedNogoodLength=29.86002271436684
%%%mzn-stat: AverageBacktrackAmount=0
%%%mzn-stat: AverageLbd=27.080352072685972
%%%mzn-stat: 2AutonomousSearchNumBackupCalled=1517
%%%mzn-stat: 2AutonomousSearchNumPredicatesRemoved=0
%%%mzn-stat: 2AutonomousSearchNumCalls=1521
%%%mzn-stat: 2AutonomousSearchNumPredicatesAdded=5052
%%%mzn-stat: 2AutonomousSearchAverageSizeOfHeap=4.596975673898751
%%%mzn-stat: 2AutonomousSearchNumAssignedPredicatesEncountered=6992
%%%mzn-stat-end
maxleg = 352;
succ = array1d(1..50,[2, 5, 15, 19, 14, 8, 16, 33, 10, 12, 13, 11, 18, 27, 6, 1, 7, 20, 29, 28, 25, 23, 3, 40, 31, 4, 35, 26, 49, 39, 32, 22, 38, 43, 41, 45, 17, 42, 46, 9, 30, 48, 36, 37, 47, 21, 44, 24, 50, 34]);
% time elapsed: 7.14 s
----------
%%%mzn-stat: initTime=0.008895337
%%%mzn-stat: objective=342
%%%mzn-stat: nodes=10722
%%%mzn-stat: restarts=0
%%%mzn-stat: peakDepth=422
%%%mzn-stat: solveTime=4.540194164
%%%mzn-stat: variables=848
%%%mzn-stat: propagators=595
%%%mzn-stat: failures=7655
%%%mzn-stat: propagations=234658
%%%mzn-stat: nogoods=7655
%%%mzn-stat: numAtomicConstraintsPropagated=0
%%%mzn-stat: circuitNumber1PropagationsTotal=42225
%%%mzn-stat: circuitNumber1CircuitConflicts=6325
%%%mzn-stat: circuitNumber1AlldiffConflicts=132
%%%mzn-stat: circuitNumber1TotalFixedEdgesAtConflict=291354
%%%mzn-stat: circuitNumber1NumberOfConflicts=6457
%%%mzn-stat: circuitNumber1GacPrunings=73077
%%%mzn-stat: circuitNumber1PropagationsThatGacPruned=23066
%%%mzn-stat: circuitNumber1TotalPruningHallSetSize=187468
%%%mzn-stat: circuitNumber1NumberOfPruningExplanations=73077
%%%mzn-stat: circuitNumber1MaxPruningHallSetSize=33
%%%mzn-stat: circuitNumber1TotalSccSizeAtPruning=93367
%%%mzn-stat: circuitNumber1NumberOfSccPruningCalls=23066
%%%mzn-stat: circuitNumber1TotalVarsInvolvedInPruning=58879
%%%mzn-stat: circuitNumber1MaxValuesPrunedFromSingleVar=8
%%%mzn-stat: circuitNumber1HallCircuitChecks=68220
%%%mzn-stat: circuitNumber1HallCircuitPrunings=3982
%%%mzn-stat: circuitNumber1CircuitPreventPrunings=21603
%%%mzn-stat: AverageConflictSize=20.797648595689093
%%%mzn-stat: NumUnitNogoodsLearned=0
%%%mzn-stat: AverageLearnedNogoodLength=30.418549967341608
%%%mzn-stat: AverageBacktrackAmount=0
%%%mzn-stat: AverageLbd=26.94421946440235
%%%mzn-stat: 2AutonomousSearchNumBackupCalled=1888
%%%mzn-stat: 2AutonomousSearchNumPredicatesRemoved=0
%%%mzn-stat: 2AutonomousSearchNumCalls=1893
%%%mzn-stat: 2AutonomousSearchNumPredicatesAdded=6602
%%%mzn-stat: 2AutonomousSearchAverageSizeOfHeap=4.736397253037507
%%%mzn-stat: 2AutonomousSearchNumAssignedPredicatesEncountered=8966
%%%mzn-stat-end
maxleg = 342;
succ = array1d(1..50,[2, 5, 15, 19, 14, 8, 17, 33, 10, 12, 13, 11, 18, 27, 6, 1, 16, 20, 29, 28, 25, 23, 3, 40, 31, 4, 35, 26, 49, 39, 32, 22, 38, 43, 41, 45, 7, 42, 46, 9, 30, 48, 36, 37, 47, 21, 44, 24, 50, 34]);
% time elapsed: 7.49 s
----------
%%%mzn-stat: initTime=0.008895337
%%%mzn-stat: objective=334
%%%mzn-stat: nodes=12463
%%%mzn-stat: restarts=0
%%%mzn-stat: peakDepth=422
%%%mzn-stat: solveTime=5.092596033
%%%mzn-stat: variables=848
%%%mzn-stat: propagators=595
%%%mzn-stat: failures=8611
%%%mzn-stat: propagations=266584
%%%mzn-stat: nogoods=8611
%%%mzn-stat: numAtomicConstraintsPropagated=0
%%%mzn-stat: circuitNumber1PropagationsTotal=47618
%%%mzn-stat: circuitNumber1CircuitConflicts=6903
%%%mzn-stat: circuitNumber1AlldiffConflicts=149
%%%mzn-stat: circuitNumber1TotalFixedEdgesAtConflict=318180
%%%mzn-stat: circuitNumber1NumberOfConflicts=7052
%%%mzn-stat: circuitNumber1GacPrunings=82392
%%%mzn-stat: circuitNumber1PropagationsThatGacPruned=26056
%%%mzn-stat: circuitNumber1TotalPruningHallSetSize=208144
%%%mzn-stat: circuitNumber1NumberOfPruningExplanations=82392
%%%mzn-stat: circuitNumber1MaxPruningHallSetSize=33
%%%mzn-stat: circuitNumber1TotalSccSizeAtPruning=103654
%%%mzn-stat: circuitNumber1NumberOfSccPruningCalls=26056
%%%mzn-stat: circuitNumber1TotalVarsInvolvedInPruning=66247
%%%mzn-stat: circuitNumber1MaxValuesPrunedFromSingleVar=8
%%%mzn-stat: circuitNumber1HallCircuitChecks=77395
%%%mzn-stat: circuitNumber1HallCircuitPrunings=4230
%%%mzn-stat: circuitNumber1CircuitPreventPrunings=23967
%%%mzn-stat: AverageConflictSize=21.32179770061549
%%%mzn-stat: NumUnitNogoodsLearned=0
%%%mzn-stat: AverageLearnedNogoodLength=31.119149924515156
%%%mzn-stat: AverageBacktrackAmount=0
%%%mzn-stat: AverageLbd=26.628730693299268
%%%mzn-stat: 2AutonomousSearchNumBackupCalled=2260
%%%mzn-stat: 2AutonomousSearchNumPredicatesRemoved=0
%%%mzn-stat: 2AutonomousSearchNumCalls=2266
%%%mzn-stat: 2AutonomousSearchNumPredicatesAdded=8218
%%%mzn-stat: 2AutonomousSearchAverageSizeOfHeap=4.837157987643424
%%%mzn-stat: 2AutonomousSearchNumAssignedPredicatesEncountered=10961
%%%mzn-stat-end
maxleg = 334;
succ = array1d(1..50,[2, 5, 15, 19, 14, 8, 17, 33, 10, 12, 22, 11, 18, 27, 6, 1, 16, 20, 29, 28, 13, 31, 3, 21, 23, 4, 35, 26, 49, 46, 32, 25, 38, 43, 41, 45, 7, 40, 9, 42, 30, 48, 36, 37, 47, 39, 44, 24, 50, 34]);
% time elapsed: 8.04 s
----------
%%%mzn-stat: initTime=0.008895337
%%%mzn-stat: objective=330
%%%mzn-stat: nodes=19218
%%%mzn-stat: restarts=0
%%%mzn-stat: peakDepth=422
%%%mzn-stat: solveTime=8.42581197
%%%mzn-stat: variables=848
%%%mzn-stat: propagators=595
%%%mzn-stat: failures=14453
%%%mzn-stat: propagations=450450
%%%mzn-stat: nogoods=14453
%%%mzn-stat: numAtomicConstraintsPropagated=0
%%%mzn-stat: circuitNumber1PropagationsTotal=78596
%%%mzn-stat: circuitNumber1CircuitConflicts=11512
%%%mzn-stat: circuitNumber1AlldiffConflicts=203
%%%mzn-stat: circuitNumber1TotalFixedEdgesAtConflict=527726
%%%mzn-stat: circuitNumber1NumberOfConflicts=11715
%%%mzn-stat: circuitNumber1GacPrunings=134522
%%%mzn-stat: circuitNumber1PropagationsThatGacPruned=43492
%%%mzn-stat: circuitNumber1TotalPruningHallSetSize=318390
%%%mzn-stat: circuitNumber1NumberOfPruningExplanations=134522
%%%mzn-stat: circuitNumber1MaxPruningHallSetSize=34
%%%mzn-stat: circuitNumber1TotalSccSizeAtPruning=159794
%%%mzn-stat: circuitNumber1NumberOfSccPruningCalls=43492
%%%mzn-stat: circuitNumber1TotalVarsInvolvedInPruning=109034
%%%mzn-stat: circuitNumber1MaxValuesPrunedFromSingleVar=8
%%%mzn-stat: circuitNumber1HallCircuitChecks=130129
%%%mzn-stat: circuitNumber1HallCircuitPrunings=7918
%%%mzn-stat: circuitNumber1CircuitPreventPrunings=40039
%%%mzn-stat: AverageConflictSize=19.88445305472912
%%%mzn-stat: NumUnitNogoodsLearned=0
%%%mzn-stat: AverageLearnedNogoodLength=35.0864180446966
%%%mzn-stat: AverageBacktrackAmount=0
%%%mzn-stat: AverageLbd=26.08053691275168
%%%mzn-stat: 2AutonomousSearchNumBackupCalled=2614
%%%mzn-stat: 2AutonomousSearchNumPredicatesRemoved=0
%%%mzn-stat: 2AutonomousSearchNumCalls=2621
%%%mzn-stat: 2AutonomousSearchNumPredicatesAdded=9906
%%%mzn-stat: 2AutonomousSearchAverageSizeOfHeap=4.967951163677985
%%%mzn-stat: 2AutonomousSearchNumAssignedPredicatesEncountered=13021
%%%mzn-stat-end
maxleg = 330;
succ = array1d(1..50,[2, 5, 15, 19, 14, 8, 17, 33, 10, 12, 22, 11, 18, 27, 6, 1, 37, 7, 29, 28, 13, 31, 3, 21, 23, 4, 44, 9, 34, 20, 32, 25, 38, 49, 41, 26, 16, 40, 46, 42, 39, 48, 36, 47, 43, 30, 45, 24, 50, 35]);
% time elapsed: 11.38 s
----------
%%%mzn-stat: initTime=0.008895337
%%%mzn-stat: objective=325
%%%mzn-stat: nodes=21414
%%%mzn-stat: restarts=0
%%%mzn-stat: peakDepth=422
%%%mzn-stat: solveTime=9.308213689
%%%mzn-stat: variables=848
%%%mzn-stat: propagators=595
%%%mzn-stat: failures=15840
%%%mzn-stat: propagations=500483
%%%mzn-stat: nogoods=15840
%%%mzn-stat: numAtomicConstraintsPropagated=0
%%%mzn-stat: circuitNumber1PropagationsTotal=87141
%%%mzn-stat: circuitNumber1CircuitConflicts=12642
%%%mzn-stat: circuitNumber1AlldiffConflicts=264
%%%mzn-stat: circuitNumber1TotalFixedEdgesAtConflict=581621
%%%mzn-stat: circuitNumber1NumberOfConflicts=12906
%%%mzn-stat: circuitNumber1GacPrunings=147169
%%%mzn-stat: circuitNumber1PropagationsThatGacPruned=48033
%%%mzn-stat: circuitNumber1TotalPruningHallSetSize=346330
%%%mzn-stat: circuitNumber1NumberOfPruningExplanations=147169
%%%mzn-stat: circuitNumber1MaxPruningHallSetSize=34
%%%mzn-stat: circuitNumber1TotalSccSizeAtPruning=177997
%%%mzn-stat: circuitNumber1NumberOfSccPruningCalls=48033
%%%mzn-stat: circuitNumber1TotalVarsInvolvedInPruning=120037
%%%mzn-stat: circuitNumber1MaxValuesPrunedFromSingleVar=8
%%%mzn-stat: circuitNumber1HallCircuitChecks=144819
%%%mzn-stat: circuitNumber1HallCircuitPrunings=8565
%%%mzn-stat: circuitNumber1CircuitPreventPrunings=44134
%%%mzn-stat: AverageConflictSize=20.012247474747475
%%%mzn-stat: NumUnitNogoodsLearned=0
%%%mzn-stat: AverageLearnedNogoodLength=35.57380050505051
%%%mzn-stat: AverageBacktrackAmount=0
%%%mzn-stat: AverageLbd=25.805050505050506
%%%mzn-stat: 2AutonomousSearchNumBackupCalled=2956
%%%mzn-stat: 2AutonomousSearchNumPredicatesRemoved=0
%%%mzn-stat: 2AutonomousSearchNumCalls=2964
%%%mzn-stat: 2AutonomousSearchNumPredicatesAdded=11570
%%%mzn-stat: 2AutonomousSearchAverageSizeOfHeap=5.092105263157895
%%%mzn-stat: 2AutonomousSearchNumAssignedPredicatesEncountered=15093
%%%mzn-stat-end
maxleg = 325;
succ = array1d(1..50,[2, 5, 15, 19, 14, 8, 17, 33, 10, 12, 22, 11, 18, 27, 6, 1, 37, 7, 34, 28, 13, 31, 3, 21, 23, 4, 44, 9, 49, 20, 32, 25, 38, 29, 41, 26, 16, 40, 46, 42, 39, 48, 36, 47, 43, 30, 45, 24, 50, 35]);
% time elapsed: 12.26 s
----------
%%%mzn-stat: initTime=0.008895337
%%%mzn-stat: objective=320
%%%mzn-stat: nodes=22447
%%%mzn-stat: restarts=0
%%%mzn-stat: peakDepth=422
%%%mzn-stat: solveTime=9.667561571
%%%mzn-stat: variables=848
%%%mzn-stat: propagators=595
%%%mzn-stat: failures=16429
%%%mzn-stat: propagations=519375
%%%mzn-stat: nogoods=16429
%%%mzn-stat: numAtomicConstraintsPropagated=0
%%%mzn-stat: circuitNumber1PropagationsTotal=90302
%%%mzn-stat: circuitNumber1CircuitConflicts=13080
%%%mzn-stat: circuitNumber1AlldiffConflicts=269
%%%mzn-stat: circuitNumber1TotalFixedEdgesAtConflict=601820
%%%mzn-stat: circuitNumber1NumberOfConflicts=13349
%%%mzn-stat: circuitNumber1GacPrunings=152293
%%%mzn-stat: circuitNumber1PropagationsThatGacPruned=49880
%%%mzn-stat: circuitNumber1TotalPruningHallSetSize=356639
%%%mzn-stat: circuitNumber1NumberOfPruningExplanations=152293
%%%mzn-stat: circuitNumber1MaxPruningHallSetSize=34
%%%mzn-stat: circuitNumber1TotalSccSizeAtPruning=184563
%%%mzn-stat: circuitNumber1NumberOfSccPruningCalls=49880
%%%mzn-stat: circuitNumber1TotalVarsInvolvedInPruning=124546
%%%mzn-stat: circuitNumber1MaxValuesPrunedFromSingleVar=8
%%%mzn-stat: circuitNumber1HallCircuitChecks=150276
%%%mzn-stat: circuitNumber1HallCircuitPrunings=8972
%%%mzn-stat: circuitNumber1CircuitPreventPrunings=45726
%%%mzn-stat: AverageConflictSize=20.113092701929514
%%%mzn-stat: NumUnitNogoodsLearned=0
%%%mzn-stat: AverageLearnedNogoodLength=35.79511838821596
%%%mzn-stat: AverageBacktrackAmount=0
%%%mzn-stat: AverageLbd=25.719155152474283
%%%mzn-stat: 2AutonomousSearchNumBackupCalled=3300
%%%mzn-stat: 2AutonomousSearchNumPredicatesRemoved=0
%%%mzn-stat: 2AutonomousSearchNumCalls=3309
%%%mzn-stat: 2AutonomousSearchNumPredicatesAdded=13256
%%%mzn-stat: 2AutonomousSearchAverageSizeOfHeap=5.210939860985192
%%%mzn-stat: 2AutonomousSearchNumAssignedPredicatesEncountered=17243
%%%mzn-stat-end
maxleg = 320;
succ = array1d(1..50,[2, 5, 15, 19, 14, 8, 17, 33, 10, 12, 22, 11, 18, 27, 6, 44, 37, 7, 34, 28, 13, 31, 3, 21, 23, 36, 35, 26, 4, 20, 32, 25, 38, 43, 49, 9, 16, 40, 46, 42, 39, 48, 45, 1, 47, 30, 41, 24, 50, 29]);
% time elapsed: 12.62 s
----------
%%%mzn-stat: initTime=0.008895337
%%%mzn-stat: objective=292
%%%mzn-stat: nodes=22808
%%%mzn-stat: restarts=0
%%%mzn-stat: peakDepth=422
%%%mzn-stat: solveTime=9.674038961
%%%mzn-stat: variables=848
%%%mzn-stat: propagators=595
%%%mzn-stat: failures=16431
%%%mzn-stat: propagations=520491
%%%mzn-stat: nogoods=16431
%%%mzn-stat: numAtomicConstraintsPropagated=0
%%%mzn-stat: circuitNumber1PropagationsTotal=90382
%%%mzn-stat: circuitNumber1CircuitConflicts=13082
%%%mzn-stat: circuitNumber1AlldiffConflicts=269
%%%mzn-stat: circuitNumber1TotalFixedEdgesAtConflict=601907
%%%mzn-stat: circuitNumber1NumberOfConflicts=13351
%%%mzn-stat: circuitNumber1GacPrunings=152490
%%%mzn-stat: circuitNumber1PropagationsThatGacPruned=49920
%%%mzn-stat: circuitNumber1TotalPruningHallSetSize=357268
%%%mzn-stat: circuitNumber1NumberOfPruningExplanations=152490
%%%mzn-stat: circuitNumber1MaxPruningHallSetSize=42
%%%mzn-stat: circuitNumber1TotalSccSizeAtPruning=184909
%%%mzn-stat: circuitNumber1NumberOfSccPruningCalls=49920
%%%mzn-stat: circuitNumber1TotalVarsInvolvedInPruning=124728
%%%mzn-stat: circuitNumber1MaxValuesPrunedFromSingleVar=8
%%%mzn-stat: circuitNumber1HallCircuitChecks=150390
%%%mzn-stat: circuitNumber1HallCircuitPrunings=8978
%%%mzn-stat: circuitNumber1CircuitPreventPrunings=45745
%%%mzn-stat: AverageConflictSize=20.110887955693507
%%%mzn-stat: NumUnitNogoodsLearned=0
%%%mzn-stat: AverageLearnedNogoodLength=35.792708903901165
%%%mzn-stat: AverageBacktrackAmount=0
%%%mzn-stat: AverageLbd=25.716937496196213
%%%mzn-stat: 2AutonomousSearchNumBackupCalled=3629
%%%mzn-stat: 2AutonomousSearchNumPredicatesRemoved=0
%%%mzn-stat: 2AutonomousSearchNumCalls=3639
%%%mzn-stat: 2AutonomousSearchNumPredicatesAdded=13340
%%%mzn-stat: 2AutonomousSearchAverageSizeOfHeap=5.329211321791701
%%%mzn-stat: 2AutonomousSearchNumAssignedPredicatesEncountered=19393
%%%mzn-stat-end
maxleg = 292;
succ = array1d(1..50,[2, 5, 15, 19, 14, 8, 17, 33, 10, 12, 22, 11, 21, 27, 6, 37, 18, 13, 34, 1, 24, 31, 3, 40, 23, 4, 44, 20, 49, 28, 32, 25, 36, 29, 41, 43, 7, 42, 46, 48, 45, 9, 26, 16, 47, 30, 39, 38, 50, 35]);
% time elapsed: 12.64 s
----------
%%%mzn-stat: initTime=0.008895337
%%%mzn-stat: objective=292
%%%mzn-stat: nodes=2071518
%%%mzn-stat: restarts=0
%%%mzn-stat: peakDepth=422
%%%mzn-stat: solveTime=1797.067791874
%%%mzn-stat: variables=848
%%%mzn-stat: propagators=595
%%%mzn-stat: failures=2063047
%%%mzn-stat: propagations=84713330
%%%mzn-stat: nogoods=2063047
%%%mzn-stat: numAtomicConstraintsPropagated=0
%%%mzn-stat: circuitNumber1PropagationsTotal=10784621
%%%mzn-stat: circuitNumber1CircuitConflicts=2053508
%%%mzn-stat: circuitNumber1AlldiffConflicts=365
%%%mzn-stat: circuitNumber1TotalFixedEdgesAtConflict=82659167
%%%mzn-stat: circuitNumber1NumberOfConflicts=2053873
%%%mzn-stat: circuitNumber1GacPrunings=17179691
%%%mzn-stat: circuitNumber1PropagationsThatGacPruned=6072350
%%%mzn-stat: circuitNumber1TotalPruningHallSetSize=42970292
%%%mzn-stat: circuitNumber1NumberOfPruningExplanations=17179691
%%%mzn-stat: circuitNumber1MaxPruningHallSetSize=42
%%%mzn-stat: circuitNumber1TotalSccSizeAtPruning=23503499
%%%mzn-stat: circuitNumber1NumberOfSccPruningCalls=6072350
%%%mzn-stat: circuitNumber1TotalVarsInvolvedInPruning=14791383
%%%mzn-stat: circuitNumber1MaxValuesPrunedFromSingleVar=8
%%%mzn-stat: circuitNumber1HallCircuitChecks=23811079
%%%mzn-stat: circuitNumber1HallCircuitPrunings=2159409
%%%mzn-stat: circuitNumber1CircuitPreventPrunings=5553189
%%%mzn-stat: AverageConflictSize=4.265901843244483
%%%mzn-stat: NumUnitNogoodsLearned=0
%%%mzn-stat: AverageLearnedNogoodLength=48.23223125794032
%%%mzn-stat: AverageBacktrackAmount=0
%%%mzn-stat: AverageLbd=23.477394843646316
%%%mzn-stat: 2AutonomousSearchNumBackupCalled=3629
%%%mzn-stat: 2AutonomousSearchNumPredicatesRemoved=0
%%%mzn-stat: 2AutonomousSearchNumCalls=3639
%%%mzn-stat: 2AutonomousSearchNumPredicatesAdded=15659
%%%mzn-stat: 2AutonomousSearchAverageSizeOfHeap=5.329211321791701
%%%mzn-stat: 2AutonomousSearchNumAssignedPredicatesEncountered=19393
%%%mzn-stat-end
